Version identifier: 20.1.0.0 | 2020-11-10 | 9bedb6d68
CPXPARAM_Threads                                 1
CPXPARAM_TimeLimit                               7200
CPXPARAM_MIP_Tolerances_MIPGap                   0
Generic callback                                 0x60
1 of 1 MIP starts provided solutions.
MIP start 'm1' defined initial solution with objective 693.4623.
Tried aggregator 1 time.
Reduced MIP has 500501 rows, 501001 columns, and 1501000 nonzeros.
Reduced MIP has 1000 binaries, 0 generals, 0 SOSs, and 0 indicators.
Presolve time = 0.51 sec. (474.50 ticks)
Probing time = 0.07 sec. (62.57 ticks)
Tried aggregator 1 time.
Reduced MIP has 500501 rows, 501001 columns, and 1501000 nonzeros.
Reduced MIP has 1000 binaries, 0 generals, 0 SOSs, and 0 indicators.
Presolve time = 0.50 sec. (466.39 ticks)
Probing time = 0.07 sec. (62.57 ticks)
MIP emphasis: balance optimality and feasibility.
MIP search method: dynamic search.
Parallel mode: none, using 1 thread.
Root relaxation solution time = 0.17 sec. (192.72 ticks)

        Nodes                                         Cuts/
   Node  Left     Objective  IInf  Best Integer    Best Bound    ItCnt     Gap

*     0+    0                          693.4623     2716.0000           291.66%
      0     0      711.6462     4      693.4623     2716.0000        0  291.66%
      0     2      711.6462     4      693.4623      711.6462        0    2.62%
Elapsed time = 1758.50 sec. (1262927.70 ticks, tree = 0.01 MB, solutions = 1)
      1     3      694.1081     2      693.4623      711.6461     7628    2.62%
      2     4      702.5361     4      693.4623      702.5360    41229    1.31%
*     3     3      integral     0      694.0969      702.5360    41234    1.22%
      4     2        cutoff            694.0969      702.5360    41236    1.22%
      5     3      702.1887     5      694.0969      702.5309    43639    1.22%
      6     4      701.7478     2      694.0969      702.5309    47537    1.22%
*     7     3      integral     0      701.7160      702.5309    48516    0.12%
      8     2        cutoff            701.7160      702.5309    48785    0.12%
      9     1        cutoff            701.7160      702.1885    56796    0.07%
     10     2      701.7475     7      701.7160      701.7473    61946    0.00%
Elapsed time = 3237.05 sec. (2258487.61 ticks, tree = 0.01 MB, solutions = 3)
     11     1        cutoff            701.7160      701.7472    61998    0.00%
     12     0        cutoff            701.7160      701.7160    66297    0.00%

User cuts applied:  12

Root node processing (before b&c):
  Real time             = 1758.40 sec. (1262840.87 ticks)
Sequential b&c:
  Real time             = 1561.59 sec. (1041364.16 ticks)
                          ------------
Total (root+branch&cut) = 3319.98 sec. (2304205.03 ticks)
@Parameters: 
is_S_cut                                true
is_add_all_yinF                         true
is_start_value                          true
is_usercut                              true
is_visualization                        false
uc_only_rootnode                        false

data                                    Qi
fn                                      data/Qi/instance_500_1000.csv
mode                                    ZLP
solver                                  cplex

p                                       2
r                                       10

EPS                                     1.0e-06
EPS_vio                                 1.0e-04
beta                                    0.10
gap                                     0.00
nodelimit                               Inf
timelimit                               7200.00


@PrintInfos
ItCnt: 66297
Current gap: 0.00 %
Termination Status: OPTIMAL
Primal Status: FEASIBLE_POINT
Solve Time: 3319.98 sec
Objective Value: 701.716020
Number of Nodes:     13

CutInfo: [phase] num / time (sec) 
ZLP             [phase1]     0 / 0.00 [rLC]     4 / 8.81 [rUC]     2 / 2.65 [sLC]     1 / 3.34 [sUC]     9 / 28.32 
OldSubmodular   [phase1]     0 / 0.00 [rLC]     0 / 0.00 [rUC]     0 / 0.00 [sLC]     0 / 0.00 [sUC]     0 / 0.00 
NewSubmodular   [phase1]     0 / 0.00 [rLC]     0 / 0.00 [rUC]     0 / 0.00 [sLC]     0 / 0.00 [sUC]     0 / 0.00 
PMP             [phase1]     0 / 0.00 [rLC]     5 / 5.14 [rUC]     2 / 1.36 [sLC]     3 / 2.36 [sUC]    17 / 18.90 
Separation Round: [phase1] 0  [rLC] 5  [rUC] 2  [sLC] 3  [sUC] 17
Root Best Bound 702.535965
Root Best Integer: 693.462285
Best Bound: 701.716020
Best Integer: 701.716020

